SCIP version 5.0.0 [precision: 8 byte] [memory: block] [mode: optimized] [LP solver: NONE] [GitHash: 3bbd232]
Copyright (C) 2002-2017 Konrad-Zuse-Zentrum fuer Informationstechnik Berlin (ZIB)

External codes: 
  Readline EditLine w  GNU library for command line editing (gnu.org/s/readline)
  CppAD 20160000.1     Algorithmic Differentiation of C++ algorithms developed by B. Bell (www.coin-or.org/CppAD)
  ZLIB 1.2.5           General purpose compression library by J. Gailly and M. Adler (zlib.net)
  GMP 6.1.2            GNU Multiple Precision Arithmetic Library developed by T. Granlund (gmplib.org)

user parameter file <scip.set> not found - using default parameters

read problem <../../Split_data/output/biodeg/6/0_sample_biodeg.logreg>
============

File name	:	../../Split_data/output/biodeg/6/0_sample_biodeg.logreg
Problem name 	:	0_sample_biodeg
Number of data	:	844
Number of var	:	41
The given data has linear dependence
1 sets of column vector are linearly dependent:
{ 19}, 

[dim=1] time: 0.030009
[dim=2] time: 0.062217
[dim=3] time: 0.102797
[dim=4] time: 0.135527
[dim=5] time: 0.172738
[dim=6] time: 0.20027
[dim=7] time: 0.229404
[dim=8] time: 0.26355
[dim=9] time: 0.293589
[dim=10] time: 0.319778
[dim=11] time: 0.344995
[dim=12] time: 0.371807
[dim=13] time: 0.387816
[dim=14] time: 0.402818
[dim=15] time: 0.418047
[dim=16] time: 0.433179
[dim=17] time: 0.447743
[dim=18] time: 0.462902
[dim=19] time: 0.477017
[dim=20] time: 0.493941
[dim=21] time: 0.510943
[dim=22] time: 0.525278
[dim=23] Time of forward = 0.538039sec.
AIC: 500.348
k: 22

[dim=40] time: 0.151945
[dim=39] time: 0.223797
[dim=38] time: 0.27044
[dim=37] time: 0.314708
[dim=36] time: 0.360632
[dim=35] time: 0.414456
[dim=34] time: 0.45455
[dim=33] time: 0.494753
[dim=32] time: 0.536091
[dim=31] time: 0.574294
[dim=30] time: 0.607222
[dim=29] time: 0.638866
[dim=28] time: 0.667699
[dim=27] time: 0.693895
[dim=26] time: 0.72455
[dim=25] time: 0.757601
[dim=24] time: 0.77952
[dim=23] time: 0.801145
[dim=22] time: 0.826132
[dim=21] time: 0.844622
[dim=20] Time of backward = 0.863649sec.
AIC: 499.036
k: 21
